GLPSOL: GLPK LP/MIP Solver, v4.55
Parameter(s) specified in the command line:
 -m tmp.mod
Reading model section from tmp.mod...
Reading data section from tmp.mod...
1940 lines were read
Generating obj...
Generating kirhoff...
Generating init_charge...
Generating batt_size...
Model has been successfully generated
GLPK Simplex Optimizer, v4.55
3440 rows, 3402 columns, 7054 non-zeros
Preprocessing...
PROBLEM HAS NO PRIMAL FEASIBLE SOLUTION
Time used:   0.0 secs
Memory used: 6.1 Mb (6412792 bytes)
